
Log started (V11.0.0) Sun Apr 13 13:22:37 2008

Tried aggregator 1 time.
Reduced MIP has 210 rows, 2001 columns, and 4010 nonzeros.
Presolve time =    0.02 sec.
Clique table members: 200.
MIP emphasis: balance optimality and feasibility.
MIP search method: dynamic search.
Parallel mode: none, using 1 thread.
Root relaxation solution time =    0.03 sec.

        Nodes                                         Cuts/
   Node  Left     Objective  IInf  Best Integer     Best Node    ItCnt     Gap

*     0+    0                        10065.0000      187.4722      314   98.14%
*     0+    0                          197.0000      187.4722      314    4.84%
      0     0      188.0000    17      197.0000      Fract: 9      361    4.57%
      0     0      188.0000    21      197.0000     Covers: 2      375    4.57%
      0     0      188.0000    23      197.0000     Covers: 1      392    4.57%
*     0+    0                          196.0000      188.0000      392    4.08%
*     0+    0                          193.0000      188.0000      392    2.59%
*     0+    0                          192.0000      188.0000      392    2.08%

Repeating presolve.
Tried aggregator 1 time.
MIP Presolve eliminated 4 rows and 1075 columns.
Aggregator did 12 substitutions.
Reduced MIP has 194 rows, 914 columns, and 1836 nonzeros.
Tried aggregator 1 time.
Represolve time =    0.03 sec.
Clique table members: 184.
MIP emphasis: balance optimality and feasibility.
MIP search method: dynamic search.
Parallel mode: none, using 1 thread.
Root relaxation solution time =    0.01 sec.

        Nodes                                         Cuts/
   Node  Left     Objective  IInf  Best Integer     Best Node    ItCnt     Gap

      0     0      188.0000    20      192.0000      188.0000      190    2.08%
*     0+    0                          191.0000      188.0000      190    1.57%
      0     2      188.0000    20      191.0000      188.0000      190    1.57%
    100    54      188.0245    19      191.0000      188.0000     2450    1.57%
    200   107      189.0000    44      191.0000      188.0000     4765    1.57%
    300   172      190.0000    29      191.0000      188.0000     8961    1.57%
*   330+   98                          190.0000      188.0000     9951    1.05%
    400   153      189.0000    30      190.0000      188.0000    12720    1.05%
    500   205      189.0000    10      190.0000      188.0000    18947    1.05%
    600   191    infeasible            190.0000      188.0000    22924    1.05%
*   604    83      integral     0      189.0000      188.0000    23368    0.53%

Cover cuts applied:  109
Mixed integer rounding cuts applied:  13
Zero-half cuts applied:  1
Gomory fractional cuts applied:  5

Solution pool: 8 solutions saved.

MIP - Integer optimal solution:  Objective = 1.8900000000e+002
Solution time =    5.92 sec.  Iterations = 26875  Nodes = 630 (61)


Incumbent solution
Variable Name           Solution Value
Cmax                        189.000000
X_1_2                         1.000000
X_2_2                         1.000000
X_3_2                         1.000000
X_4_6                         1.000000
X_5_3                         1.000000
X_6_3                         1.000000
X_7_5                         1.000000
X_8_8                         1.000000
X_9_9                         1.000000
X_10_6                        1.000000
X_11_7                        1.000000
X_12_9                        1.000000
X_13_4                        1.000000
X_14_10                       1.000000
X_15_3                        1.000000
X_16_1                        1.000000
X_17_7                        1.000000
X_18_9                        1.000000
X_19_7                        1.000000
X_20_2                        1.000000
X_21_3                        1.000000
X_22_4                        1.000000
X_23_7                        1.000000
X_24_8                        1.000000
X_25_5                        1.000000
X_26_8                        1.000000
X_27_7                        1.000000
X_28_5                        1.000000
X_29_2                        1.000000
X_30_3                        1.000000
X_31_8                        1.000000
X_32_6                        1.000000
X_33_2                        1.000000
X_34_10                       1.000000
X_35_8                        1.000000
X_36_8                        1.000000
X_37_3                        1.000000
X_38_6                        1.000000
X_39_4                        1.000000
X_40_6                        1.000000
X_41_4                        1.000000
X_42_1                        1.000000
X_43_1                        1.000000
X_44_6                        1.000000
X_45_2                        1.000000
X_46_5                        1.000000
X_47_2                        1.000000
X_48_4                        1.000000
X_49_10                       1.000000
X_50_8                        1.000000
X_51_8                        1.000000
X_52_8                        1.000000
X_53_8                        1.000000
X_54_10                       1.000000
X_55_5                        1.000000
X_56_2                        1.000000
X_57_1                        1.000000
X_58_1                        1.000000
X_59_7                        1.000000
X_60_6                        1.000000
X_61_10                       1.000000
X_62_3                        1.000000
X_63_8                        1.000000
X_64_5                        1.000000
X_65_2                        1.000000
X_66_1                        1.000000
X_67_1                        1.000000
X_68_8                        1.000000
X_69_4                        1.000000
X_70_2                        1.000000
X_71_5                        1.000000
X_72_10                       1.000000
X_73_3                        1.000000
X_74_1                        1.000000
X_75_9                        1.000000
X_76_10                       1.000000
X_77_10                       1.000000
X_78_6                        1.000000
X_79_7                        1.000000
X_80_7                        1.000000
X_81_6                        1.000000
X_82_6                        1.000000
X_83_1                        1.000000
X_84_8                        1.000000
X_85_8                        1.000000
X_86_9                        1.000000
X_87_9                        1.000000
X_88_5                        1.000000
X_89_9                        1.000000
X_90_10                       1.000000
X_91_6                        1.000000
X_92_5                        1.000000
X_93_3                        1.000000
X_94_2                        1.000000
X_95_8                        1.000000
X_96_6                        1.000000
X_97_9                        1.000000
X_98_9                        1.000000
X_99_4                        1.000000
X_100_8                       1.000000
X_101_6                       1.000000
X_102_1                       1.000000
X_103_4                       1.000000
X_104_5                       1.000000
X_105_8                       1.000000
X_106_7                       1.000000
X_107_5                       1.000000
X_108_10                      1.000000
X_109_7                       1.000000
X_110_9                       1.000000
X_111_7                       1.000000
X_112_8                       1.000000
X_113_5                       1.000000
X_114_5                       1.000000
X_115_6                       1.000000
X_116_10                      1.000000
X_117_5                       1.000000
X_118_4                       1.000000
X_119_5                       1.000000
X_120_8                       1.000000
X_121_9                       1.000000
X_122_7                       1.000000
X_123_2                       1.000000
X_124_10                      1.000000
X_125_5                       1.000000
X_126_8                       1.000000
X_127_9                       1.000000
X_128_6                       1.000000
X_129_6                       1.000000
X_130_4                       1.000000
X_131_4                       1.000000
X_132_2                       1.000000
X_133_7                       1.000000
X_134_2                       1.000000
X_135_10                      1.000000
X_136_10                      1.000000
X_137_6                       1.000000
X_138_9                       1.000000
X_139_2                       1.000000
X_140_4                       1.000000
X_141_9                       1.000000
X_142_1                       1.000000
X_143_3                       1.000000
X_144_3                       1.000000
X_145_2                       1.000000
X_146_10                      1.000000
X_147_8                       1.000000
X_148_4                       1.000000
X_149_6                       1.000000
X_150_2                       1.000000
X_151_3                       1.000000
X_152_8                       1.000000
X_153_3                       1.000000
X_154_7                       1.000000
X_155_7                       1.000000
X_156_5                       1.000000
X_157_8                       1.000000
X_158_6                       1.000000
X_159_5                       1.000000
X_160_10                      1.000000
X_161_5                       1.000000
X_162_1                       1.000000
X_163_8                       1.000000
X_164_10                      1.000000
X_165_6                       1.000000
X_166_3                       1.000000
X_167_7                       1.000000
X_168_7                       1.000000
X_169_2                       1.000000
X_170_5                       1.000000
X_171_6                       1.000000
X_172_6                       1.000000
X_173_5                       1.000000
X_174_4                       1.000000
X_175_9                       1.000000
X_176_4                       1.000000
X_177_10                      1.000000
X_178_9                       1.000000
X_179_9                       1.000000
X_180_1                       1.000000
X_181_5                       1.000000
X_182_3                       1.000000
X_183_10                      1.000000
X_184_3                       1.000000
X_185_6                       1.000000
X_186_7                       1.000000
X_187_8                       1.000000
X_188_1                       1.000000
X_189_1                       1.000000
X_190_4                       1.000000
X_191_2                       1.000000
X_192_1                       1.000000
X_193_4                       1.000000
X_194_4                       1.000000
X_195_3                       1.000000
X_196_6                       1.000000
X_197_3                       1.000000
X_198_9                       1.000000
X_199_1                       1.000000
X_200_10                      1.000000
All other variables in the range 1-2001 are 0.
